0
478
102
8
219
59
32
12
27
53
0
51
31
8
51
10
81
14
146
28
22
0
28
337
0
114
48
0
40
65
387
62
16
156
0
0
9
21
10
0
120
114
9
105
0
64
148
59
18
35
179
229
164
88
151
392
0
0
54
10
14
15
11
91
52
13
33
14
27
21
108
17
428
9
397
21
0
37
25
83
0
360
123
48
31
0
388
49
17
0
23
15
47
144
157
209
45
9
58
171
